p cnf 392 1687
1 -2 0
2 -1 0
3 -4 0
4 -3 0
5 -6 0
6 -5 0
7 -8 0
8 -7 0
9 -10 0
10 -9 0
11 -12 0
12 -11 0
13 -14 0
14 -13 0
15 -16 0
16 -15 0
17 -18 0
18 -17 0
19 -20 0
20 -19 0
21 -22 0
22 -21 0
23 -24 0
24 -23 0
25 -26 0
26 -25 0
27 -28 0
28 -27 0
29 -30 0
30 -29 0
31 -32 0
32 -31 0
33 -34 0
34 -33 0
35 -36 0
36 -35 0
37 -38 0
38 -37 0
39 -40 0
40 -39 0
41 -42 0
42 -41 0
43 -44 0
44 -43 0
45 -46 0
46 -45 0
47 -48 0
48 -47 0
49 -50 0
50 -49 0
51 -52 0
52 -51 0
53 -54 0
54 -53 0
55 -56 0
56 -55 0
57 -58 0
58 -57 0
59 -60 0
60 -59 0
61 -62 0
62 -61 0
63 -64 0
64 -63 0
65 -66 0
66 -65 0
67 -68 0
68 -67 0
69 -70 0
70 -69 0
71 -72 0
72 -71 0
73 -74 0
74 -73 0
75 -76 0
76 -75 0
77 -78 0
78 -77 0
79 -80 0
80 -79 0
81 -82 0
82 -81 0
83 -84 0
84 -83 0
85 -86 0
86 -85 0
87 -88 0
88 -87 0
89 -90 0
90 -89 0
91 -92 0
92 -91 0
93 -94 0
94 -93 0
95 -96 0
96 -95 0
97 -98 0
98 -97 0
99 -100 0
100 -99 0
101 -102 0
102 -101 0
103 -104 0
104 -103 0
105 -106 0
106 -105 0
107 -108 0
108 -107 0
109 -110 0
110 -109 0
111 -112 0
112 -111 0
113 -114 0
114 -113 0
115 -116 0
116 -115 0
117 -118 0
118 -117 0
119 -120 0
120 -119 0
121 -122 0
122 -121 0
123 -124 0
124 -123 0
125 -126 0
126 -125 0
127 -128 0
128 -127 0
129 -130 0
130 -129 0
131 -132 0
132 -131 0
133 -134 0
134 -133 0
135 -136 0
136 -135 0
137 -138 0
138 -137 0
139 -140 0
140 -139 0
141 -142 0
142 -141 0
-141 -143 139 0
-143 -139 141 0
143 -139 -141 0
143 139 141 0
-143 0
127 -95 -144 0
95 -127 -144 0
-95 -127 144 0
127 95 144 0
131 -99 -145 0
99 -131 -145 0
-99 -131 145 0
131 99 145 0
129 -97 -146 0
97 -129 -146 0
-97 -129 146 0
129 97 146 0
61 -29 -147 0
29 -61 -147 0
-29 -61 147 0
61 29 147 0
65 -33 -148 0
33 -65 -148 0
-33 -65 148 0
65 33 148 0
63 -31 -149 0
-63 31 -149 0
-31 -63 149 0
63 31 149 0
45 -13 -150 0
13 -45 -150 0
-13 -45 150 0
45 13 150 0
-11 43 -151 0
-43 11 -151 0
-43 -11 151 0
11 43 151 0
-37 69 -152 0
-69 37 -152 0
-69 -37 152 0
37 69 152 0
-35 67 -153 0
35 -67 -153 0
-35 -67 153 0
35 67 153 0
-41 73 -154 0
41 -73 -154 0
-41 -73 154 0
73 41 154 0
71 -39 -155 0
-71 39 -155 0
-71 -39 155 0
39 71 155 0
121 -89 -156 0
-121 89 -156 0
-121 -89 156 0
121 89 156 0
125 -93 -157 0
93 -125 -157 0
-125 -93 157 0
125 93 157 0
-91 123 -158 0
91 -123 -158 0
-91 -123 158 0
91 123 158 0
111 -79 -159 0
-111 79 -159 0
-79 -111 159 0
111 79 159 0
-83 115 -160 0
83 -115 -160 0
-83 -115 160 0
83 115 160 0
119 -87 -161 0
87 -119 -161 0
-87 -119 161 0
119 87 161 0
-85 117 -162 0
85 -117 -162 0
-117 -85 162 0
85 117 162 0
107 -75 -163 0
75 -107 -163 0
-75 -107 163 0
107 75 163 0
113 -81 -164 0
81 -113 -164 0
-81 -113 164 0
113 81 164 0
59 -27 -165 0
-59 27 -165 0
-27 -59 165 0
59 27 165 0
109 -77 -166 0
77 -109 -166 0
-109 -77 166 0
109 77 166 0
53 -21 -167 0
21 -53 -167 0
-21 -53 167 0
53 21 167 0
57 -25 -168 0
-57 25 -168 0
-57 -25 168 0
57 25 168 0
-23 55 -169 0
23 -55 -169 0
-55 -23 169 0
23 55 169 0
47 -15 -170 0
15 -47 -170 0
-15 -47 170 0
47 15 170 0
-19 51 -171 0
-51 19 -171 0
-19 -51 171 0
51 19 171 0
-17 49 -172 0
17 -49 -172 0
-49 -17 172 0
17 49 172 0
133 -101 -173 0
-133 101 -173 0
-133 -101 173 0
133 101 173 0
137 -105 -174 0
105 -137 -174 0
-137 -105 174 0
105 137 174 0
135 -103 -175 0
-135 103 -175 0
-135 -103 175 0
135 103 175 0
175 176 0
174 176 0
173 176 0
172 176 0
171 176 0
170 176 0
169 176 0
168 176 0
167 176 0
166 176 0
165 176 0
164 176 0
163 176 0
162 176 0
161 176 0
160 176 0
159 176 0
158 176 0
157 176 0
156 176 0
155 176 0
154 176 0
153 176 0
152 176 0
151 176 0
150 176 0
149 176 0
148 176 0
147 176 0
146 176 0
145 176 0
144 176 0
-144 -145 -146 -147 -148 -149 -150 -151 -152 -153 -154 -155 -156 -157 -158 -159 -160 -161 -162 -163 -164 -165 -166 -167 -168 -169 -170 -171 -172 -173 -174 -175 -176 0
-77 177 0
-75 177 0
-75 -77 177 0
77 75 -177 0
-77 178 0
-75 178 0
-79 178 0
-79 -177 178 0
-75 -77 178 0
77 75 79 -178 0
77 75 79 177 -178 0
-77 179 0
-75 179 0
-75 -77 179 0
77 75 -179 0
-77 180 0
-81 180 0
-75 180 0
-79 180 0
-79 -179 180 0
-75 -77 180 0
-81 -178 180 0
77 81 75 79 -180 0
77 81 75 79 179 -180 0
77 81 75 79 178 -180 0
77 81 75 79 178 179 -180 0
-77 181 0
-75 181 0
-79 181 0
-79 -179 181 0
-75 -77 181 0
77 75 79 -181 0
77 75 79 179 -181 0
-77 182 0
-75 182 0
-75 -77 182 0
77 75 -182 0
-77 183 0
-81 183 0
-75 183 0
-79 183 0
-79 -182 183 0
-83 183 0
-75 -77 183 0
-81 -181 183 0
-83 -180 183 0
77 81 75 79 83 -183 0
77 81 75 79 83 182 -183 0
77 81 75 79 83 181 -183 0
77 81 75 79 83 181 182 -183 0
77 81 75 79 83 180 -183 0
77 81 75 79 83 180 182 -183 0
77 81 75 79 83 180 181 -183 0
77 81 75 79 83 180 181 182 -183 0
85 184 0
183 184 0
-85 -183 -184 0
-77 185 0
-81 185 0
-75 185 0
-79 185 0
-79 -182 185 0
-75 -77 185 0
-81 -181 185 0
77 81 75 79 -185 0
77 81 75 79 182 -185 0
77 81 75 79 181 -185 0
77 81 75 79 181 182 -185 0
-77 186 0
-75 186 0
-79 186 0
-79 -182 186 0
-75 -77 186 0
77 75 79 -186 0
77 75 79 182 -186 0
-77 187 0
-75 187 0
-75 -77 187 0
77 75 -187 0
-77 188 0
-81 188 0
-75 188 0
-79 188 0
-85 188 0
-79 -187 188 0
-83 188 0
-75 -77 188 0
-81 -186 188 0
-83 -185 188 0
184 188 0
77 81 75 79 85 83 -184 -188 0
77 81 75 79 85 83 -184 187 -188 0
77 81 75 79 85 83 -184 186 -188 0
77 81 75 79 85 83 -184 186 187 -188 0
77 81 75 79 85 83 -184 185 -188 0
77 81 75 79 85 83 -184 185 187 -188 0
77 81 75 79 85 83 -184 185 186 -188 0
77 81 75 79 85 83 -184 185 186 187 -188 0
87 189 0
188 189 0
-87 -188 -189 0
85 190 0
183 190 0
-85 -183 -190 0
-77 191 0
-81 191 0
-75 191 0
-79 191 0
-79 -187 191 0
-75 -77 191 0
-81 -186 191 0
77 81 75 79 -191 0
77 81 75 79 187 -191 0
77 81 75 79 186 -191 0
77 81 75 79 186 187 -191 0
-77 192 0
-75 192 0
-79 192 0
-79 -187 192 0
-75 -77 192 0
77 75 79 -192 0
77 75 79 187 -192 0
-77 193 0
-75 193 0
-75 -77 193 0
77 75 -193 0
-77 194 0
-81 194 0
-75 194 0
-79 194 0
-85 194 0
-79 -193 194 0
-87 194 0
-83 194 0
-75 -77 194 0
-81 -192 194 0
-83 -191 194 0
190 194 0
189 194 0
77 81 75 79 85 87 83 -189 -190 -194 0
77 81 75 79 85 87 83 -189 -190 193 -194 0
77 81 75 79 85 87 83 -189 -190 192 -194 0
77 81 75 79 85 87 83 -189 -190 192 193 -194 0
77 81 75 79 85 87 83 -189 -190 191 -194 0
77 81 75 79 85 87 83 -189 -190 191 193 -194 0
77 81 75 79 85 87 83 -189 -190 191 192 -194 0
77 81 75 79 85 87 83 -189 -190 191 192 193 -194 0
89 195 0
194 195 0
-89 -194 -195 0
87 196 0
188 196 0
-87 -188 -196 0
85 197 0
183 197 0
-85 -183 -197 0
-77 198 0
-81 198 0
-75 198 0
-79 198 0
-79 -193 198 0
-75 -77 198 0
-81 -192 198 0
77 81 75 79 -198 0
77 81 75 79 193 -198 0
77 81 75 79 192 -198 0
77 81 75 79 192 193 -198 0
-77 199 0
-75 199 0
-79 199 0
-79 -193 199 0
-75 -77 199 0
77 75 79 -199 0
77 75 79 193 -199 0
-77 200 0
-75 200 0
-75 -77 200 0
77 75 -200 0
-77 201 0
-81 201 0
-75 201 0
-79 201 0
-85 201 0
-79 -200 201 0
-87 201 0
-89 201 0
-83 201 0
-75 -77 201 0
-81 -199 201 0
-83 -198 201 0
197 201 0
196 201 0
195 201 0
77 81 75 79 85 87 89 83 -195 -196 -197 -201 0
77 81 75 79 85 87 89 83 -195 -196 -197 200 -201 0
77 81 75 79 85 87 89 83 -195 -196 -197 199 -201 0
77 81 75 79 85 87 89 83 -195 -196 -197 199 200 -201 0
77 81 75 79 85 87 89 83 -195 -196 -197 198 -201 0
77 81 75 79 85 87 89 83 -195 -196 -197 198 200 -201 0
77 81 75 79 85 87 89 83 -195 -196 -197 198 199 -201 0
77 81 75 79 85 87 89 83 -195 -196 -197 198 199 200 -201 0
91 202 0
201 202 0
-91 -201 -202 0
89 203 0
194 203 0
-89 -194 -203 0
87 204 0
188 204 0
-87 -188 -204 0
85 205 0
183 205 0
-85 -183 -205 0
-77 206 0
-81 206 0
-75 206 0
-79 206 0
-79 -200 206 0
-75 -77 206 0
-81 -199 206 0
77 81 75 79 -206 0
77 81 75 79 200 -206 0
77 81 75 79 199 -206 0
77 81 75 79 199 200 -206 0
-77 207 0
-75 207 0
-79 207 0
-79 -200 207 0
-75 -77 207 0
77 75 79 -207 0
77 75 79 200 -207 0
-77 208 0
-75 208 0
-75 -77 208 0
77 75 -208 0
-77 209 0
-81 209 0
-91 209 0
-75 209 0
-79 209 0
-85 209 0
-79 -208 209 0
-87 209 0
-89 209 0
-83 209 0
-75 -77 209 0
-81 -207 209 0
-83 -206 209 0
205 209 0
204 209 0
203 209 0
202 209 0
77 81 91 75 79 85 87 89 83 -202 -203 -204 -205 -209 0
77 81 91 75 79 85 87 89 83 -202 -203 -204 -205 208 -209 0
77 81 91 75 79 85 87 89 83 -202 -203 -204 -205 207 -209 0
77 81 91 75 79 85 87 89 83 -202 -203 -204 -205 207 208 -209 0
77 81 91 75 79 85 87 89 83 -202 -203 -204 -205 206 -209 0
77 81 91 75 79 85 87 89 83 -202 -203 -204 -205 206 208 -209 0
77 81 91 75 79 85 87 89 83 -202 -203 -204 -205 206 207 -209 0
77 81 91 75 79 85 87 89 83 -202 -203 -204 -205 206 207 208 -209 0
93 210 0
209 210 0
-93 -209 -210 0
91 211 0
201 211 0
-91 -201 -211 0
89 212 0
194 212 0
-89 -194 -212 0
87 213 0
188 213 0
-87 -188 -213 0
85 214 0
183 214 0
-85 -183 -214 0
-77 215 0
-81 215 0
-75 215 0
-79 215 0
-79 -208 215 0
-75 -77 215 0
-81 -207 215 0
77 81 75 79 -215 0
77 81 75 79 208 -215 0
77 81 75 79 207 -215 0
77 81 75 79 207 208 -215 0
-77 216 0
-75 216 0
-79 216 0
-79 -208 216 0
-75 -77 216 0
77 75 79 -216 0
77 75 79 208 -216 0
-77 217 0
-75 217 0
-75 -77 217 0
77 75 -217 0
-77 218 0
-81 218 0
-91 218 0
-75 218 0
-79 218 0
-85 218 0
-79 -217 218 0
-93 218 0
-87 218 0
-89 218 0
-83 218 0
-75 -77 218 0
-81 -216 218 0
-83 -215 218 0
214 218 0
213 218 0
212 218 0
211 218 0
210 218 0
77 81 91 75 79 85 93 87 89 83 -210 -211 -212 -213 -214 -218 0
77 81 91 75 79 85 93 87 89 83 -210 -211 -212 -213 -214 217 -218 0
77 81 91 75 79 85 93 87 89 83 -210 -211 -212 -213 -214 216 -218 0
77 81 91 75 79 85 93 87 89 83 -210 -211 -212 -213 -214 216 217 -218 0
77 81 91 75 79 85 93 87 89 83 -210 -211 -212 -213 -214 215 -218 0
77 81 91 75 79 85 93 87 89 83 -210 -211 -212 -213 -214 215 217 -218 0
77 81 91 75 79 85 93 87 89 83 -210 -211 -212 -213 -214 215 216 -218 0
77 81 91 75 79 85 93 87 89 83 -210 -211 -212 -213 -214 215 216 217 -218 0
95 219 0
218 219 0
-95 -218 -219 0
93 220 0
209 220 0
-93 -209 -220 0
91 221 0
201 221 0
-91 -201 -221 0
89 222 0
194 222 0
-89 -194 -222 0
87 223 0
188 223 0
-87 -188 -223 0
85 224 0
183 224 0
-85 -183 -224 0
-77 225 0
-81 225 0
-75 225 0
-79 225 0
-79 -217 225 0
-75 -77 225 0
-81 -216 225 0
77 81 75 79 -225 0
77 81 75 79 217 -225 0
77 81 75 79 216 -225 0
77 81 75 79 216 217 -225 0
-77 226 0
-75 226 0
-79 226 0
-79 -217 226 0
-75 -77 226 0
77 75 79 -226 0
77 75 79 217 -226 0
-77 227 0
-75 227 0
-75 -77 227 0
77 75 -227 0
-77 228 0
-81 228 0
-95 228 0
-91 228 0
-75 228 0
-79 228 0
-85 228 0
-79 -227 228 0
-93 228 0
-87 228 0
-89 228 0
-83 228 0
-75 -77 228 0
-81 -226 228 0
-83 -225 228 0
224 228 0
223 228 0
222 228 0
221 228 0
220 228 0
219 228 0
77 81 95 91 75 79 85 93 87 89 83 -219 -220 -221 -222 -223 -224 -228 0
77 81 95 91 75 79 85 93 87 89 83 -219 -220 -221 -222 -223 -224 227 -228 0
77 81 95 91 75 79 85 93 87 89 83 -219 -220 -221 -222 -223 -224 226 -228 0
77 81 95 91 75 79 85 93 87 89 83 -219 -220 -221 -222 -223 -224 226 227 -228 0
77 81 95 91 75 79 85 93 87 89 83 -219 -220 -221 -222 -223 -224 225 -228 0
77 81 95 91 75 79 85 93 87 89 83 -219 -220 -221 -222 -223 -224 225 227 -228 0
77 81 95 91 75 79 85 93 87 89 83 -219 -220 -221 -222 -223 -224 225 226 -228 0
77 81 95 91 75 79 85 93 87 89 83 -219 -220 -221 -222 -223 -224 225 226 227 -228 0
97 229 0
228 229 0
-97 -228 -229 0
95 230 0
218 230 0
-95 -218 -230 0
93 231 0
209 231 0
-93 -209 -231 0
91 232 0
201 232 0
-91 -201 -232 0
89 233 0
194 233 0
-89 -194 -233 0
87 234 0
188 234 0
-87 -188 -234 0
85 235 0
183 235 0
-85 -183 -235 0
-77 236 0
-81 236 0
-75 236 0
-79 236 0
-79 -227 236 0
-75 -77 236 0
-81 -226 236 0
77 81 75 79 -236 0
77 81 75 79 227 -236 0
77 81 75 79 226 -236 0
77 81 75 79 226 227 -236 0
-77 237 0
-75 237 0
-79 237 0
-79 -227 237 0
-75 -77 237 0
77 75 79 -237 0
77 75 79 227 -237 0
-77 238 0
-75 238 0
-75 -77 238 0
77 75 -238 0
-77 239 0
-81 239 0
-95 239 0
-91 239 0
-75 239 0
-79 239 0
-85 239 0
-79 -238 239 0
-93 239 0
-97 239 0
-87 239 0
-89 239 0
-83 239 0
-75 -77 239 0
-81 -237 239 0
-83 -236 239 0
235 239 0
234 239 0
233 239 0
232 239 0
231 239 0
230 239 0
229 239 0
77 81 95 91 75 79 85 93 97 87 89 83 -229 -230 -231 -232 -233 -234 -235 -239 0
77 81 95 91 75 79 85 93 97 87 89 83 -229 -230 -231 -232 -233 -234 -235 238 -239 0
77 81 95 91 75 79 85 93 97 87 89 83 -229 -230 -231 -232 -233 -234 -235 237 -239 0
77 81 95 91 75 79 85 93 97 87 89 83 -229 -230 -231 -232 -233 -234 -235 237 238 -239 0
77 81 95 91 75 79 85 93 97 87 89 83 -229 -230 -231 -232 -233 -234 -235 236 -239 0
77 81 95 91 75 79 85 93 97 87 89 83 -229 -230 -231 -232 -233 -234 -235 236 238 -239 0
77 81 95 91 75 79 85 93 97 87 89 83 -229 -230 -231 -232 -233 -234 -235 236 237 -239 0
77 81 95 91 75 79 85 93 97 87 89 83 -229 -230 -231 -232 -233 -234 -235 236 237 238 -239 0
99 240 0
239 240 0
-99 -239 -240 0
97 241 0
228 241 0
-97 -228 -241 0
95 242 0
218 242 0
-95 -218 -242 0
93 243 0
209 243 0
-93 -209 -243 0
91 244 0
201 244 0
-91 -201 -244 0
89 245 0
194 245 0
-89 -194 -245 0
87 246 0
188 246 0
-87 -188 -246 0
85 247 0
183 247 0
-85 -183 -247 0
-77 248 0
-81 248 0
-75 248 0
-79 248 0
-79 -238 248 0
-75 -77 248 0
-81 -237 248 0
77 81 75 79 -248 0
77 81 75 79 238 -248 0
77 81 75 79 237 -248 0
77 81 75 79 237 238 -248 0
-77 249 0
-75 249 0
-79 249 0
-79 -238 249 0
-75 -77 249 0
77 75 79 -249 0
77 75 79 238 -249 0
-77 250 0
-75 250 0
-75 -77 250 0
77 75 -250 0
-77 251 0
-81 251 0
-95 251 0
-91 251 0
-75 251 0
-79 251 0
-85 251 0
-79 -250 251 0
-99 251 0
-93 251 0
-97 251 0
-87 251 0
-89 251 0
-83 251 0
-75 -77 251 0
-81 -249 251 0
-83 -248 251 0
247 251 0
246 251 0
245 251 0
244 251 0
243 251 0
242 251 0
241 251 0
240 251 0
77 81 95 91 75 79 85 99 93 97 87 89 83 -240 -241 -242 -243 -244 -245 -246 -247 -251 0
77 81 95 91 75 79 85 99 93 97 87 89 83 -240 -241 -242 -243 -244 -245 -246 -247 250 -251 0
77 81 95 91 75 79 85 99 93 97 87 89 83 -240 -241 -242 -243 -244 -245 -246 -247 249 -251 0
77 81 95 91 75 79 85 99 93 97 87 89 83 -240 -241 -242 -243 -244 -245 -246 -247 249 250 -251 0
77 81 95 91 75 79 85 99 93 97 87 89 83 -240 -241 -242 -243 -244 -245 -246 -247 248 -251 0
77 81 95 91 75 79 85 99 93 97 87 89 83 -240 -241 -242 -243 -244 -245 -246 -247 248 250 -251 0
77 81 95 91 75 79 85 99 93 97 87 89 83 -240 -241 -242 -243 -244 -245 -246 -247 248 249 -251 0
77 81 95 91 75 79 85 99 93 97 87 89 83 -240 -241 -242 -243 -244 -245 -246 -247 248 249 250 -251 0
101 252 0
251 252 0
-101 -251 -252 0
99 253 0
239 253 0
-99 -239 -253 0
97 254 0
228 254 0
-97 -228 -254 0
95 255 0
218 255 0
-95 -218 -255 0
93 256 0
209 256 0
-93 -209 -256 0
91 257 0
201 257 0
-91 -201 -257 0
89 258 0
194 258 0
-89 -194 -258 0
87 259 0
188 259 0
-87 -188 -259 0
85 260 0
183 260 0
-85 -183 -260 0
-77 261 0
-81 261 0
-75 261 0
-79 261 0
-79 -250 261 0
-75 -77 261 0
-81 -249 261 0
77 81 75 79 -261 0
77 81 75 79 250 -261 0
77 81 75 79 249 -261 0
77 81 75 79 249 250 -261 0
-77 262 0
-75 262 0
-79 262 0
-79 -250 262 0
-75 -77 262 0
77 75 79 -262 0
77 75 79 250 -262 0
-77 263 0
-75 263 0
-75 -77 263 0
77 75 -263 0
-77 264 0
-81 264 0
-95 264 0
-91 264 0
-75 264 0
-79 264 0
-85 264 0
-79 -263 264 0
-99 264 0
-101 264 0
-93 264 0
-97 264 0
-87 264 0
-89 264 0
-83 264 0
-75 -77 264 0
-81 -262 264 0
-83 -261 264 0
260 264 0
259 264 0
258 264 0
257 264 0
256 264 0
255 264 0
254 264 0
253 264 0
252 264 0
77 81 95 91 75 79 85 99 101 93 97 87 89 83 -252 -253 -254 -255 -256 -257 -258 -259 -260 -264 0
77 81 95 91 75 79 85 99 101 93 97 87 89 83 -252 -253 -254 -255 -256 -257 -258 -259 -260 263 -264 0
77 81 95 91 75 79 85 99 101 93 97 87 89 83 -252 -253 -254 -255 -256 -257 -258 -259 -260 262 -264 0
77 81 95 91 75 79 85 99 101 93 97 87 89 83 -252 -253 -254 -255 -256 -257 -258 -259 -260 262 263 -264 0
77 81 95 91 75 79 85 99 101 93 97 87 89 83 -252 -253 -254 -255 -256 -257 -258 -259 -260 261 -264 0
77 81 95 91 75 79 85 99 101 93 97 87 89 83 -252 -253 -254 -255 -256 -257 -258 -259 -260 261 263 -264 0
77 81 95 91 75 79 85 99 101 93 97 87 89 83 -252 -253 -254 -255 -256 -257 -258 -259 -260 261 262 -264 0
77 81 95 91 75 79 85 99 101 93 97 87 89 83 -252 -253 -254 -255 -256 -257 -258 -259 -260 261 262 263 -264 0
103 265 0
264 265 0
-103 -264 -265 0
101 266 0
251 266 0
-101 -251 -266 0
99 267 0
239 267 0
-99 -239 -267 0
97 268 0
228 268 0
-97 -228 -268 0
95 269 0
218 269 0
-95 -218 -269 0
93 270 0
209 270 0
-93 -209 -270 0
91 271 0
201 271 0
-91 -201 -271 0
89 272 0
194 272 0
-89 -194 -272 0
87 273 0
188 273 0
-87 -188 -273 0
85 274 0
183 274 0
-85 -183 -274 0
-77 275 0
-81 275 0
-75 275 0
-79 275 0
-79 -263 275 0
-75 -77 275 0
-81 -262 275 0
77 81 75 79 -275 0
77 81 75 79 263 -275 0
77 81 75 79 262 -275 0
77 81 75 79 262 263 -275 0
-77 276 0
-75 276 0
-79 276 0
-79 -263 276 0
-75 -77 276 0
77 75 79 -276 0
77 75 79 263 -276 0
-77 277 0
-75 277 0
-75 -77 277 0
77 75 -277 0
-77 278 0
-81 278 0
-95 278 0
-91 278 0
-75 278 0
-79 278 0
-85 278 0
-79 -277 278 0
-99 278 0
-101 278 0
-93 278 0
-97 278 0
-87 278 0
-89 278 0
-83 278 0
-75 -77 278 0
-81 -276 278 0
-83 -275 278 0
-103 278 0
274 278 0
273 278 0
272 278 0
271 278 0
270 278 0
269 278 0
268 278 0
267 278 0
266 278 0
265 278 0
77 81 95 91 75 79 85 99 101 93 97 87 89 83 103 -265 -266 -267 -268 -269 -270 -271 -272 -273 -274 -278 0
77 81 95 91 75 79 85 99 101 93 97 87 89 83 103 -265 -266 -267 -268 -269 -270 -271 -272 -273 -274 277 -278 0
77 81 95 91 75 79 85 99 101 93 97 87 89 83 103 -265 -266 -267 -268 -269 -270 -271 -272 -273 -274 276 -278 0
77 81 95 91 75 79 85 99 101 93 97 87 89 83 103 -265 -266 -267 -268 -269 -270 -271 -272 -273 -274 276 277 -278 0
77 81 95 91 75 79 85 99 101 93 97 87 89 83 103 -265 -266 -267 -268 -269 -270 -271 -272 -273 -274 275 -278 0
77 81 95 91 75 79 85 99 101 93 97 87 89 83 103 -265 -266 -267 -268 -269 -270 -271 -272 -273 -274 275 277 -278 0
77 81 95 91 75 79 85 99 101 93 97 87 89 83 103 -265 -266 -267 -268 -269 -270 -271 -272 -273 -274 275 276 -278 0
77 81 95 91 75 79 85 99 101 93 97 87 89 83 103 -265 -266 -267 -268 -269 -270 -271 -272 -273 -274 275 276 277 -278 0
105 -278 -279 0
-105 278 -279 0
279 -105 -278 0
105 278 279 0
-75 280 0
-77 280 0
-79 280 0
-81 280 0
-83 280 0
-85 280 0
-87 280 0
-89 280 0
-91 280 0
-93 280 0
-95 280 0
-97 280 0
-99 280 0
-101 280 0
-103 280 0
-105 280 0
75 77 79 81 83 85 87 89 91 93 95 97 99 101 103 105 -280 0
279 -280 -281 0
105 280 -281 0
-279 -280 281 0
-105 280 281 0
105 279 -281 0
-105 -279 281 0
137 -281 -282 0
-137 281 -282 0
282 -137 -281 0
137 281 282 0
99 -239 -283 0
-99 239 -283 0
283 -99 -239 0
99 239 283 0
-280 283 -284 0
99 280 -284 0
-280 -283 284 0
-99 280 284 0
99 283 -284 0
-99 -283 284 0
131 -284 -285 0
-131 284 -285 0
285 -131 -284 0
131 284 285 0
103 -264 -286 0
-103 264 -286 0
286 -103 -264 0
103 264 286 0
-280 286 -287 0
103 280 -287 0
-280 -286 287 0
-103 280 287 0
103 286 -287 0
-103 -286 287 0
135 -287 -288 0
-135 287 -288 0
288 -135 -287 0
135 287 288 0
101 -251 -289 0
-101 251 -289 0
289 -101 -251 0
101 251 289 0
-280 289 -290 0
101 280 -290 0
-280 -289 290 0
-101 280 290 0
101 289 -290 0
-101 -289 290 0
133 -290 -291 0
-133 290 -291 0
291 -133 -290 0
133 290 291 0
91 -201 -292 0
-91 201 -292 0
292 -91 -201 0
91 201 292 0
-280 292 -293 0
91 280 -293 0
-280 -292 293 0
-91 280 293 0
91 292 -293 0
-91 -292 293 0
123 -293 -294 0
-123 293 -294 0
294 -123 -293 0
123 293 294 0
97 -228 -295 0
-97 228 -295 0
295 -97 -228 0
97 228 295 0
-280 295 -296 0
97 280 -296 0
-280 -295 296 0
-97 280 296 0
97 295 -296 0
-97 -295 296 0
129 -296 -297 0
-129 296 -297 0
297 -129 -296 0
129 296 297 0
95 -218 -298 0
-95 218 -298 0
298 -95 -218 0
95 218 298 0
-280 298 -299 0
95 280 -299 0
-280 -298 299 0
-95 280 299 0
95 298 -299 0
-95 -298 299 0
127 -299 -300 0
-127 299 -300 0
300 -127 -299 0
127 299 300 0
93 -209 -301 0
-93 209 -301 0
301 -93 -209 0
93 209 301 0
-280 301 -302 0
93 280 -302 0
-280 -301 302 0
-93 280 302 0
93 301 -302 0
-93 -301 302 0
125 -302 -303 0
-125 302 -303 0
303 -125 -302 0
125 302 303 0
81 -276 -304 0
-81 276 -304 0
304 -81 -276 0
81 276 304 0
-280 304 -305 0
81 280 -305 0
-280 -304 305 0
-81 280 305 0
81 304 -305 0
-81 -304 305 0
113 -305 -306 0
-113 305 -306 0
306 -113 -305 0
113 305 306 0
83 -275 -307 0
-83 275 -307 0
307 -83 -275 0
83 275 307 0
-280 307 -308 0
83 280 -308 0
-280 -307 308 0
-83 280 308 0
83 307 -308 0
-83 -307 308 0
115 -308 -309 0
-115 308 -309 0
309 -115 -308 0
115 308 309 0
89 -194 -310 0
-89 194 -310 0
310 -89 -194 0
89 194 310 0
-280 310 -311 0
89 280 -311 0
-280 -310 311 0
-89 280 311 0
89 310 -311 0
-89 -310 311 0
121 -311 -312 0
-121 311 -312 0
312 -121 -311 0
121 311 312 0
87 -188 -313 0
-87 188 -313 0
313 -87 -188 0
87 188 313 0
-280 313 -314 0
87 280 -314 0
-280 -313 314 0
-87 280 314 0
87 313 -314 0
-87 -313 314 0
119 -314 -315 0
-119 314 -315 0
315 -119 -314 0
119 314 315 0
85 -183 -316 0
-85 183 -316 0
316 -85 -183 0
85 183 316 0
-280 316 -317 0
85 280 -317 0
-280 -316 317 0
-85 280 317 0
85 316 -317 0
-85 -316 317 0
117 -317 -318 0
-117 317 -318 0
318 -117 -317 0
117 317 318 0
-13 -11 -75 319 0
-11 -75 -77 319 0
-13 -77 319 0
13 11 -319 0
75 13 11 -319 0
75 13 -319 0
77 13 -319 0
77 13 11 -319 0
77 75 13 -319 0
77 11 -319 0
77 75 11 -319 0
13 75 77 -319 0
11 75 77 -319 0
77 75 -319 0
79 15 -320 0
79 319 -320 0
15 319 -320 0
-79 -15 320 0
320 -79 -319 0
320 -15 -319 0
81 17 -321 0
17 320 -321 0
81 320 -321 0
321 -17 -81 0
321 -17 -320 0
321 -81 -320 0
83 19 -322 0
83 321 -322 0
19 321 -322 0
-83 -19 322 0
322 -83 -321 0
322 -19 -321 0
21 85 -323 0
21 322 -323 0
85 322 -323 0
323 -21 -85 0
323 -21 -322 0
323 -85 -322 0
23 87 -324 0
23 323 -324 0
87 323 -324 0
324 -23 -87 0
324 -23 -323 0
324 -87 -323 0
89 25 324 -325 0
-89 25 -324 -325 0
89 -25 -324 -325 0
-25 -89 324 -325 0
325 -25 -89 -324 0
89 -25 324 325 0
-89 25 324 325 0
89 25 -324 325 0
1 326 0
280 326 0
-1 -280 -326 0
25 -326 -327 0
325 326 -327 0
-25 -326 327 0
-325 326 327 0
25 325 -327 0
-25 -325 327 0
57 -327 -328 0
-57 327 -328 0
328 -57 -327 0
57 327 328 0
79 15 319 -329 0
-79 15 -319 -329 0
79 -15 -319 -329 0
-79 -15 319 -329 0
329 -15 -79 -319 0
79 -15 319 329 0
-79 15 319 329 0
79 15 -319 329 0
15 -326 -330 0
326 329 -330 0
-15 -326 330 0
326 -329 330 0
15 329 -330 0
-15 -329 330 0
47 -330 -331 0
-47 330 -331 0
331 -47 -330 0
47 330 331 0
89 25 -332 0
25 324 -332 0
89 324 -332 0
332 -25 -89 0
332 -25 -324 0
332 -89 -324 0
91 27 -333 0
91 332 -333 0
27 332 -333 0
-91 -27 333 0
333 -91 -332 0
333 -27 -332 0
29 93 -334 0
29 333 -334 0
93 333 -334 0
334 -29 -93 0
334 -29 -333 0
334 -93 -333 0
95 31 -335 0
31 334 -335 0
95 334 -335 0
335 -31 -95 0
335 -31 -334 0
335 -95 -334 0
97 33 -336 0
33 335 -336 0
97 335 -336 0
336 -33 -97 0
336 -33 -335 0
336 -97 -335 0
35 99 -337 0
35 336 -337 0
99 336 -337 0
337 -35 -99 0
337 -35 -336 0
337 -99 -336 0
37 101 -338 0
37 337 -338 0
101 337 -338 0
338 -37 -101 0
338 -37 -337 0
338 -101 -337 0
39 103 338 -339 0
39 -103 -338 -339 0
103 -39 -338 -339 0
-39 -103 338 -339 0
339 -39 -103 -338 0
103 -39 338 339 0
39 -103 338 339 0
39 103 -338 339 0
39 -326 -340 0
326 339 -340 0
-39 -326 340 0
326 -339 340 0
39 339 -340 0
-39 -339 340 0
71 -340 -341 0
-71 340 -341 0
341 -71 -340 0
71 340 341 0
107 75 280 -342 0
75 -107 -280 -342 0
-75 -107 280 -342 0
107 -75 -280 -342 0
-75 -107 -280 342 0
107 -75 280 342 0
107 75 -280 342 0
75 -107 280 342 0
81 17 320 -343 0
17 -81 -320 -343 0
81 -17 -320 -343 0
-17 -81 320 -343 0
343 -17 -81 -320 0
81 -17 320 343 0
17 -81 320 343 0
81 17 -320 343 0
17 -326 -344 0
326 343 -344 0
-17 -326 344 0
326 -343 344 0
17 343 -344 0
-17 -343 344 0
49 -344 -345 0
-49 344 -345 0
345 -49 -344 0
49 344 345 0
91 27 332 -346 0
-91 27 -332 -346 0
91 -27 -332 -346 0
-91 -27 332 -346 0
346 -27 -91 -332 0
91 -27 332 346 0
-91 27 332 346 0
91 27 -332 346 0
27 -326 -347 0
326 346 -347 0
-27 -326 347 0
326 -346 347 0
27 346 -347 0
-27 -346 347 0
59 -347 -348 0
-59 347 -348 0
348 -59 -347 0
59 347 348 0
37 101 337 -349 0
37 -101 -337 -349 0
101 -37 -337 -349 0
-37 -101 337 -349 0
349 -37 -101 -337 0
101 -37 337 349 0
37 -101 337 349 0
37 101 -337 349 0
37 -326 -350 0
326 349 -350 0
-37 -326 350 0
326 -349 350 0
37 349 -350 0
-37 -349 350 0
69 -350 -351 0
-69 350 -351 0
351 -69 -350 0
69 350 351 0
-75 11 -352 0
75 -11 -352 0
352 -11 -75 0
75 11 352 0
11 -326 -353 0
326 -352 -353 0
-11 -326 353 0
326 352 353 0
11 -352 -353 0
-11 352 353 0
43 -353 -354 0
-43 353 -354 0
354 -43 -353 0
43 353 354 0
35 99 336 -355 0
35 -99 -336 -355 0
-35 99 -336 -355 0
-35 -99 336 -355 0
355 -35 -99 -336 0
-35 99 336 355 0
35 -99 336 355 0
35 99 -336 355 0
35 -326 -356 0
326 355 -356 0
-35 -326 356 0
326 -355 356 0
35 355 -356 0
-35 -355 356 0
67 -356 -357 0
-67 356 -357 0
357 -67 -356 0
67 356 357 0
39 103 -358 0
39 338 -358 0
103 338 -358 0
358 -39 -103 0
358 -39 -338 0
358 -103 -338 0
105 41 358 -359 0
41 -105 -358 -359 0
105 -41 -358 -359 0
-41 -105 358 -359 0
359 -41 -105 -358 0
105 -41 358 359 0
41 -105 358 359 0
105 41 -358 359 0
41 -326 -360 0
326 359 -360 0
-41 -326 360 0
326 -359 360 0
41 359 -360 0
-41 -359 360 0
73 -360 -361 0
-73 360 -361 0
361 -73 -360 0
73 360 361 0
97 33 335 -362 0
-97 33 -335 -362 0
-33 97 -335 -362 0
-33 -97 335 -362 0
362 -33 -97 -335 0
-33 97 335 362 0
-97 33 335 362 0
97 33 -335 362 0
33 -326 -363 0
326 362 -363 0
-33 -326 363 0
326 -362 363 0
33 362 -363 0
-33 -362 363 0
65 -363 -364 0
-65 363 -364 0
364 -65 -363 0
65 363 364 0
95 31 334 -365 0
-95 31 -334 -365 0
-31 95 -334 -365 0
-31 -95 334 -365 0
365 -31 -95 -334 0
-31 95 334 365 0
-95 31 334 365 0
95 31 -334 365 0
31 -326 -366 0
326 365 -366 0
-31 -326 366 0
326 -365 366 0
31 365 -366 0
-31 -365 366 0
63 -366 -367 0
-63 366 -367 0
367 -63 -366 0
63 366 367 0
-9 368 0
280 368 0
9 -280 -368 0
-1 368 -369 0
1 -368 -369 0
-1 -368 369 0
1 368 369 0
23 87 323 -370 0
23 -87 -323 -370 0
-23 87 -323 -370 0
-23 -87 323 -370 0
370 -23 -87 -323 0
-23 87 323 370 0
23 -87 323 370 0
23 87 -323 370 0
23 -326 -371 0
326 370 -371 0
-23 -326 371 0
326 -370 371 0
23 370 -371 0
-23 -370 371 0
55 -371 -372 0
-55 371 -372 0
372 -55 -371 0
55 371 372 0
11 373 0
75 373 0
-11 -75 -373 0
77 13 373 -374 0
13 -77 -373 -374 0
-13 77 -373 -374 0
-13 -77 373 -374 0
374 -13 -77 -373 0
-13 77 373 374 0
13 -77 373 374 0
77 13 -373 374 0
13 -326 -375 0
326 -374 -375 0
-13 -326 375 0
326 374 375 0
13 -374 -375 0
-13 374 375 0
45 -375 -376 0
-45 375 -376 0
376 -45 -375 0
45 375 376 0
21 85 322 -377 0
21 -85 -322 -377 0
85 -21 -322 -377 0
-21 -85 322 -377 0
377 -21 -85 -322 0
85 -21 322 377 0
21 -85 322 377 0
21 85 -322 377 0
21 -326 -378 0
326 377 -378 0
-21 -326 378 0
326 -377 378 0
21 377 -378 0
-21 -377 378 0
53 -378 -379 0
-53 378 -379 0
379 -53 -378 0
53 378 379 0
83 19 321 -380 0
-83 19 -321 -380 0
-19 83 -321 -380 0
-83 -19 321 -380 0
380 -19 -83 -321 0
-19 83 321 380 0
-83 19 321 380 0
83 19 -321 380 0
19 -326 -381 0
326 380 -381 0
-19 -326 381 0
326 -380 381 0
19 380 -381 0
-19 -380 381 0
51 -381 -382 0
-51 381 -382 0
382 -51 -381 0
51 381 382 0
29 93 333 -383 0
29 -93 -333 -383 0
-29 93 -333 -383 0
-29 -93 333 -383 0
383 -29 -93 -333 0
-29 93 333 383 0
29 -93 333 383 0
29 93 -333 383 0
29 -326 -384 0
326 383 -384 0
-29 -326 384 0
326 -383 384 0
29 383 -384 0
-29 -383 384 0
61 -384 -385 0
-61 384 -385 0
385 -61 -384 0
61 384 385 0
77 -75 -386 0
75 -77 -386 0
-75 -77 386 0
77 75 386 0
-280 386 -387 0
77 280 -387 0
-280 -386 387 0
-77 280 387 0
77 386 -387 0
-77 -386 387 0
109 -387 -388 0
-109 387 -388 0
388 -109 -387 0
109 387 388 0
79 -277 -389 0
-79 277 -389 0
389 -79 -277 0
79 277 389 0
-280 389 -390 0
79 280 -390 0
-280 -389 390 0
-79 280 390 0
79 389 -390 0
-79 -389 390 0
111 -390 -391 0
-111 390 -391 0
391 -111 -390 0
111 390 391 0
391 392 0
388 392 0
385 392 0
382 392 0
379 392 0
376 392 0
372 392 0
-369 392 0
367 392 0
364 392 0
361 392 0
357 392 0
354 392 0
351 392 0
348 392 0
345 392 0
-342 392 0
341 392 0
331 392 0
328 392 0
318 392 0
315 392 0
312 392 0
309 392 0
306 392 0
303 392 0
300 392 0
297 392 0
294 392 0
291 392 0
288 392 0
285 392 0
282 392 0
-282 -285 -288 -291 -294 -297 -300 -303 -306 -309 -312 -315 -318 -328 -331 -341 342 -345 -348 -351 -354 -357 -361 -364 -367 369 -372 -376 -379 -382 -385 -388 -391 -392 0
-141 -392 0
141 -176 0
